30 40 20
1 7 8 5 0 0 0
1 7 8 5 7 0 0
1 7 8 5 14 0 0
1 7 8 5 21 0 0
1 7 8 5 0 8 0
1 7 8 5 7 8 0
1 7 8 5 14 8 0
1 7 8 5 21 8 0
1 7 8 5 0 16 0
1 7 8 5 7 16 0
1 5 7 8 14 16 0
1 7 8 5 19 16 0
1 5 7 8 0 24 0
1 7 8 5 5 24 0
1 5 7 8 12 24 0
1 7 8 5 17 24 0
1 5 7 8 24 24 0
1 7 8 5 5 32 0
1 5 7 8 12 32 0
1 7 8 5 17 32 0
1 5 7 8 24 32 0
1 5 7 8 0 31 0
1 5 7 8 0 0 5
1 7 8 5 5 0 5
1 7 8 5 12 0 5
1 7 8 5 19 0 5
1 5 7 8 0 7 5
1 5 7 8 5 8 5
1 5 7 8 10 8 5
1 7 8 5 15 8 5
1 7 8 5 22 8 5
1 7 8 5 5 15 5
1 7 8 5 22 16 5
1 7 8 5 5 23 5
1 7 8 5 5 31 5
1 7 8 5 14 16 8
1 7 8 5 14 24 8
1 7 8 5 21 24 8
1 7 8 5 14 32 8
1 2 8 4 28 0 0
1 2 8 4 28 8 0
1 4 8 2 26 16 0
1 4 8 2 26 0 5
1 2 8 4 28 24 8
1 4 8 2 21 32 8
1 1 2 2 29 24 0
1 1 2 2 29 32 0
1 1 2 2 29 8 5
1 2 1 2 12 15 5
1 1 2 2 29 16 5
1 2 1 2 12 23 5
1 2 1 2 12 31 5
1 2 1 2 25 32 8
1 2 1 2 14 23 5
1 2 1 2 14 31 5
1 2 1 2 27 32 8
1 2 1 2 16 23 5
1 2 1 2 16 31 5
1 1 2 2 29 32 8
1 2 1 2 18 23 5
1 2 1 2 18 31 5
1 2 1 2 20 23 5
1 2 1 2 20 31 5
1 2 1 2 22 31 5
1 2 1 2 24 31 5
1 2 1 2 26 31 5
1 2 1 2 28 31 5
1 2 1 2 14 23 0
1 2 1 2 16 23 0
1 2 1 2 12 31 0
1 2 1 2 14 31 0
1 2 1 2 24 31 0
1 2 1 2 26 31 0
1 2 1 2 28 31 0
1 2 1 2 12 39 0
1 2 1 2 14 39 0
1 2 1 2 24 39 0
1 2 1 2 26 39 0
1 2 1 2 28 39 0
1 2 1 2 0 38 0
1 2 1 2 2 38 0
1 2 1 2 0 14 5
1 2 1 2 2 14 5
1 2 1 2 22 24 5
1 2 1 2 5 39 5
1 2 1 2 7 39 5
1 2 1 2 9 39 5
1 2 1 2 11 39 5
1 2 1 2 13 39 5
1 2 1 2 15 39 5
1 2 1 2 17 39 5
